NAME : cgl_48b.4271.tour
COMMENT : Length = 4271
COMMENT : Found by LKH-3 [Keld Helsgaun] Thu Jun 26 21:26:49 2025
TYPE : TOUR
DIMENSION : 49
TOUR_SECTION
33
40
35
38
36
39
37
49
26
27
42
41
32
31
43
45
44
46
30
29
47
48
28
25
12
13
23
24
22
20
19
21
18
17
16
14
15
11
9
10
2
1
3
8
6
5
4
7
34
-1
EOF
